certificates/rado_a9_c186_N22.drat
-21 -22 0
d -19 -21 -22 0
-22 0
10 0
21 0
-18 0
-7 0
-13 0
6 0
19 0
1 0
20 0
-3 0
-9 0
-12 0
0
